(set-info :Origin "This instance was generated by: BanditFuzz-- an RL fuzzer for SMT solvers" )
(set-info :Author "Joe Scott, Fed Mora, Vijay Ganesh" )
(set-info :Contact "Joe Scott, joseph.scott@uwaterloo.ca")
(set-logic QF_BV)
(declare-const bool_0 Bool)
(declare-const bool_1 Bool)
(declare-const bool_2 Bool)
(declare-const bool_3 Bool)
(declare-const bool_4 Bool)
(declare-const bv_0 (_ BitVec 32))
(declare-const bv_1 (_ BitVec 32))
(declare-const bv_2 (_ BitVec 32))
(declare-const bv_3 (_ BitVec 32))
(declare-const bv_4 (_ BitVec 32))
(assert (and (bvsle (bvashr bv_2 #xa5aaaf7d ) (bvnand #x5e6948cf  #xeef16157 )) (bvsgt (bvnor #x394b853a  #xac0c048d ) (bvxor bv_3 bv_0))))
(assert (and (xor (or bool_0 bool_3) (or bool_0 bool_3)) (or (=> true bool_4) (bvult bv_0 #x472a1fba ))))
(assert (bvuge (bvsdiv (bvnor #x2785883a  #x9b573b11 ) (bvand bv_2 bv_2)) (bvurem (bvnor bv_0 #x1efad445 ) (bvudiv #x2bc03eaa  #xb93f02c3 ))))
(assert (xor (=> (bvule #x0c943318  #xfd00e6e4 ) (bvugt #x09b8a085  #x7f55a025 )) (bvsgt (bvadd #x6d02b832  bv_4) (bvxor bv_4 #xa9c87a9d ))))
(assert (bvugt (bvsrem (bvsdiv #x9099a16d  #x2e0e4749 ) (bvmul bv_2 bv_4)) (bvxor (bvudiv bv_4 #xf8ae148d ) (bvand bv_0 bv_1))))
(check-sat)
(exit)
